p edge 70 1855
n 1 45
n 2 20
n 3 26
n 4 37
n 5 12
n 6 51
n 7 28
n 8 33
n 9 2
n 10 14
n 11 44
n 12 36
n 13 67
n 14 6
n 15 8
n 16 58
n 17 24
n 18 69
n 19 56
n 20 66
n 21 41
n 22 50
n 23 61
n 24 9
n 25 25
n 26 17
n 27 15
n 28 43
n 29 63
n 30 32
n 31 10
n 32 31
n 33 19
n 34 39
n 35 30
n 36 16
n 37 7
n 38 22
n 39 49
n 40 29
n 41 64
n 42 40
n 43 3
n 44 52
n 45 13
n 46 4
n 47 53
n 48 55
n 49 34
n 50 60
n 51 47
n 52 48
n 53 11
n 54 5
n 55 42
n 56 18
n 57 65
n 58 57
n 59 21
n 60 27
n 61 71
n 62 70
n 63 38
n 64 59
n 65 23
n 66 62
n 67 46
n 68 35
n 69 54
n 70 68
e 1 2
e 1 3
e 1 4
e 1 5
e 1 7
e 1 8
e 1 9
e 1 10
e 1 12
e 1 13
e 1 15
e 1 16
e 1 17
e 1 18
e 1 22
e 1 24
e 1 26
e 1 29
e 1 30
e 1 31
e 1 32
e 1 33
e 1 34
e 1 35
e 1 36
e 1 37
e 1 38
e 1 39
e 1 40
e 1 43
e 1 44
e 1 45
e 1 47
e 1 48
e 1 49
e 1 50
e 1 51
e 1 52
e 1 53
e 1 54
e 1 55
e 1 56
e 1 57
e 1 58
e 1 59
e 1 60
e 1 61
e 1 62
e 1 64
e 1 65
e 1 66
e 1 68
e 1 70
e 2 4
e 2 5
e 2 6
e 2 7
e 2 8
e 2 10
e 2 11
e 2 12
e 2 13
e 2 15
e 2 16
e 2 17
e 2 18
e 2 19
e 2 20
e 2 21
e 2 22
e 2 24
e 2 27
e 2 28
e 2 29
e 2 34
e 2 35
e 2 36
e 2 37
e 2 38
e 2 39
e 2 41
e 2 43
e 2 44
e 2 45
e 2 46
e 2 47
e 2 48
e 2 49
e 2 50
e 2 51
e 2 52
e 2 53
e 2 54
e 2 55
e 2 57
e 2 58
e 2 59
e 2 60
e 2 61
e 2 62
e 2 63
e 2 67
e 2 68
e 2 69
e 2 70
e 3 4
e 3 5
e 3 6
e 3 7
e 3 8
e 3 9
e 3 10
e 3 11
e 3 13
e 3 15
e 3 16
e 3 18
e 3 19
e 3 21
e 3 22
e 3 23
e 3 24
e 3 26
e 3 27
e 3 28
e 3 29
e 3 31
e 3 32
e 3 34
e 3 35
e 3 37
e 3 39
e 3 40
e 3 41
e 3 42
e 3 43
e 3 44
e 3 45
e 3 46
e 3 47
e 3 48
e 3 49
e 3 50
e 3 51
e 3 52
e 3 53
e 3 55
e 3 56
e 3 58
e 3 59
e 3 60
e 3 61
e 3 62
e 3 63
e 3 64
e 3 69
e 3 70
e 4 5
e 4 6
e 4 7
e 4 8
e 4 10
e 4 11
e 4 12
e 4 13
e 4 14
e 4 15
e 4 17
e 4 18
e 4 19
e 4 20
e 4 22
e 4 23
e 4 24
e 4 25
e 4 27
e 4 29
e 4 30
e 4 31
e 4 32
e 4 33
e 4 35
e 4 36
e 4 38
e 4 40
e 4 41
e 4 44
e 4 45
e 4 46
e 4 47
e 4 48
e 4 49
e 4 50
e 4 53
e 4 54
e 4 56
e 4 57
e 4 59
e 4 60
e 4 61
e 4 62
e 4 65
e 4 66
e 4 67
e 4 68
e 4 69
e 4 70
e 5 6
e 5 9
e 5 11
e 5 12
e 5 13
e 5 14
e 5 15
e 5 16
e 5 17
e 5 18
e 5 19
e 5 20
e 5 21
e 5 22
e 5 23
e 5 25
e 5 26
e 5 27
e 5 28
e 5 29
e 5 30
e 5 31
e 5 32
e 5 33
e 5 34
e 5 35
e 5 39
e 5 40
e 5 41
e 5 42
e 5 44
e 5 46
e 5 49
e 5 50
e 5 51
e 5 56
e 5 57
e 5 58
e 5 59
e 5 60
e 5 61
e 5 62
e 5 63
e 5 64
e 5 65
e 5 66
e 5 67
e 5 69
e 5 70
e 6 7
e 6 8
e 6 9
e 6 10
e 6 11
e 6 12
e 6 13
e 6 14
e 6 16
e 6 17
e 6 18
e 6 20
e 6 21
e 6 24
e 6 25
e 6 26
e 6 28
e 6 29
e 6 30
e 6 33
e 6 34
e 6 35
e 6 36
e 6 37
e 6 38
e 6 40
e 6 41
e 6 43
e 6 45
e 6 46
e 6 47
e 6 48
e 6 49
e 6 50
e 6 52
e 6 53
e 6 54
e 6 55
e 6 56
e 6 57
e 6 58
e 6 59
e 6 60
e 6 61
e 6 64
e 6 65
e 6 66
e 6 67
e 6 68
e 7 9
e 7 10
e 7 11
e 7 12
e 7 14
e 7 15
e 7 17
e 7 19
e 7 20
e 7 21
e 7 22
e 7 23
e 7 25
e 7 27
e 7 28
e 7 29
e 7 31
e 7 32
e 7 34
e 7 36
e 7 39
e 7 41
e 7 42
e 7 43
e 7 44
e 7 45
e 7 46
e 7 47
e 7 48
e 7 49
e 7 50
e 7 51
e 7 53
e 7 54
e 7 55
e 7 56
e 7 57
e 7 58
e 7 59
e 7 61
e 7 62
e 7 63
e 7 64
e 7 65
e 7 66
e 7 67
e 7 69
e 7 70
e 8 9
e 8 11
e 8 14
e 8 15
e 8 16
e 8 18
e 8 19
e 8 20
e 8 21
e 8 22
e 8 23
e 8 24
e 8 25
e 8 26
e 8 27
e 8 28
e 8 30
e 8 31
e 8 32
e 8 33
e 8 34
e 8 36
e 8 37
e 8 39
e 8 40
e 8 41
e 8 42
e 8 43
e 8 44
e 8 45
e 8 46
e 8 48
e 8 50
e 8 51
e 8 52
e 8 54
e 8 55
e 8 56
e 8 57
e 8 58
e 8 62
e 8 63
e 8 64
e 8 65
e 8 66
e 8 67
e 8 69
e 8 70
e 9 10
e 9 11
e 9 12
e 9 13
e 9 16
e 9 17
e 9 18
e 9 19
e 9 20
e 9 21
e 9 22
e 9 23
e 9 25
e 9 27
e 9 28
e 9 29
e 9 30
e 9 32
e 9 35
e 9 36
e 9 38
e 9 39
e 9 40
e 9 41
e 9 44
e 9 45
e 9 47
e 9 48
e 9 49
e 9 50
e 9 51
e 9 52
e 9 53
e 9 55
e 9 57
e 9 58
e 9 59
e 9 60
e 9 61
e 9 62
e 9 64
e 9 65
e 9 66
e 9 67
e 9 68
e 9 69
e 9 70
e 10 13
e 10 14
e 10 16
e 10 18
e 10 20
e 10 21
e 10 23
e 10 25
e 10 26
e 10 28
e 10 29
e 10 30
e 10 31
e 10 32
e 10 33
e 10 34
e 10 37
e 10 38
e 10 39
e 10 40
e 10 41
e 10 42
e 10 43
e 10 44
e 10 45
e 10 48
e 10 49
e 10 50
e 10 51
e 10 52
e 10 55
e 10 56
e 10 57
e 10 58
e 10 59
e 10 60
e 10 61
e 10 62
e 10 63
e 10 64
e 10 65
e 10 66
e 10 67
e 10 68
e 10 69
e 10 70
e 11 12
e 11 13
e 11 14
e 11 15
e 11 16
e 11 18
e 11 23
e 11 24
e 11 25
e 11 26
e 11 27
e 11 28
e 11 30
e 11 31
e 11 32
e 11 33
e 11 35
e 11 36
e 11 37
e 11 38
e 11 39
e 11 40
e 11 41
e 11 42
e 11 43
e 11 44
e 11 45
e 11 48
e 11 49
e 11 51
e 11 52
e 11 53
e 11 56
e 11 57
e 11 58
e 11 59
e 11 60
e 11 61
e 11 62
e 11 64
e 11 65
e 11 66
e 11 68
e 11 69
e 11 70
e 12 13
e 12 14
e 12 15
e 12 16
e 12 18
e 12 21
e 12 22
e 12 23
e 12 24
e 12 26
e 12 28
e 12 29
e 12 31
e 12 33
e 12 34
e 12 37
e 12 38
e 12 39
e 12 40
e 12 41
e 12 42
e 12 43
e 12 44
e 12 45
e 12 46
e 12 47
e 12 48
e 12 50
e 12 51
e 12 52
e 12 53
e 12 54
e 12 55
e 12 56
e 12 57
e 12 58
e 12 59
e 12 60
e 12 63
e 12 64
e 12 65
e 12 66
e 12 67
e 12 69
e 12 70
e 13 14
e 13 15
e 13 17
e 13 19
e 13 20
e 13 21
e 13 23
e 13 24
e 13 25
e 13 26
e 13 27
e 13 28
e 13 30
e 13 31
e 13 32
e 13 33
e 13 34
e 13 36
e 13 37
e 13 38
e 13 39
e 13 40
e 13 41
e 13 42
e 13 43
e 13 44
e 13 45
e 13 46
e 13 48
e 13 49
e 13 53
e 13 54
e 13 55
e 13 56
e 13 57
e 13 59
e 13 63
e 13 64
e 13 65
e 13 66
e 13 67
e 13 68
e 13 69
e 14 15
e 14 16
e 14 17
e 14 18
e 14 19
e 14 20
e 14 21
e 14 22
e 14 23
e 14 24
e 14 26
e 14 29
e 14 30
e 14 32
e 14 33
e 14 34
e 14 35
e 14 37
e 14 38
e 14 39
e 14 40
e 14 41
e 14 44
e 14 47
e 14 48
e 14 49
e 14 50
e 14 51
e 14 52
e 14 53
e 14 55
e 14 56
e 14 57
e 14 58
e 14 59
e 14 60
e 14 61
e 14 62
e 14 63
e 14 64
e 14 66
e 14 68
e 14 69
e 14 70
e 15 16
e 15 17
e 15 18
e 15 19
e 15 20
e 15 21
e 15 23
e 15 25
e 15 26
e 15 28
e 15 29
e 15 30
e 15 33
e 15 34
e 15 36
e 15 38
e 15 39
e 15 40
e 15 41
e 15 42
e 15 43
e 15 44
e 15 45
e 15 47
e 15 48
e 15 49
e 15 50
e 15 52
e 15 54
e 15 55
e 15 57
e 15 58
e 15 59
e 15 61
e 15 62
e 15 64
e 15 65
e 15 66
e 15 67
e 15 68
e 15 69
e 15 70
e 16 17
e 16 19
e 16 20
e 16 21
e 16 22
e 16 23
e 16 24
e 16 25
e 16 27
e 16 28
e 16 30
e 16 31
e 16 32
e 16 35
e 16 36
e 16 37
e 16 39
e 16 40
e 16 41
e 16 42
e 16 43
e 16 44
e 16 45
e 16 46
e 16 47
e 16 48
e 16 49
e 16 51
e 16 53
e 16 54
e 16 56
e 16 59
e 16 60
e 16 61
e 16 62
e 16 63
e 16 65
e 16 67
e 16 68
e 16 69
e 16 70
e 17 18
e 17 19
e 17 21
e 17 22
e 17 23
e 17 24
e 17 26
e 17 27
e 17 28
e 17 30
e 17 31
e 17 32
e 17 34
e 17 36
e 17 37
e 17 39
e 17 40
e 17 41
e 17 42
e 17 43
e 17 44
e 17 45
e 17 47
e 17 48
e 17 49
e 17 51
e 17 52
e 17 53
e 17 55
e 17 57
e 17 58
e 17 60
e 17 61
e 17 62
e 17 63
e 17 64
e 17 65
e 17 66
e 17 67
e 17 68
e 17 69
e 17 70
e 18 19
e 18 20
e 18 21
e 18 22
e 18 23
e 18 24
e 18 25
e 18 26
e 18 27
e 18 28
e 18 29
e 18 31
e 18 32
e 18 33
e 18 34
e 18 35
e 18 36
e 18 37
e 18 38
e 18 41
e 18 42
e 18 43
e 18 45
e 18 46
e 18 47
e 18 49
e 18 50
e 18 51
e 18 53
e 18 54
e 18 55
e 18 56
e 18 58
e 18 59
e 18 60
e 18 63
e 18 65
e 18 67
e 18 69
e 19 21
e 19 23
e 19 24
e 19 25
e 19 26
e 19 28
e 19 29
e 19 30
e 19 31
e 19 32
e 19 33
e 19 34
e 19 35
e 19 37
e 19 38
e 19 39
e 19 40
e 19 41
e 19 42
e 19 43
e 19 45
e 19 46
e 19 49
e 19 50
e 19 51
e 19 52
e 19 53
e 19 54
e 19 55
e 19 56
e 19 57
e 19 58
e 19 59
e 19 60
e 19 63
e 19 64
e 19 65
e 19 66
e 19 68
e 19 70
e 20 21
e 20 22
e 20 24
e 20 26
e 20 27
e 20 28
e 20 30
e 20 31
e 20 32
e 20 33
e 20 34
e 20 35
e 20 36
e 20 37
e 20 38
e 20 39
e 20 40
e 20 42
e 20 43
e 20 44
e 20 45
e 20 46
e 20 47
e 20 48
e 20 49
e 20 51
e 20 52
e 20 53
e 20 54
e 20 55
e 20 56
e 20 58
e 20 59
e 20 60
e 20 63
e 20 64
e 20 65
e 20 68
e 20 69
e 20 70
e 21 22
e 21 23
e 21 24
e 21 25
e 21 26
e 21 27
e 21 30
e 21 31
e 21 32
e 21 33
e 21 34
e 21 35
e 21 36
e 21 37
e 21 38
e 21 39
e 21 40
e 21 42
e 21 44
e 21 45
e 21 48
e 21 49
e 21 50
e 21 52
e 21 54
e 21 56
e 21 57
e 21 60
e 21 61
e 21 62
e 21 64
e 21 65
e 21 66
e 21 67
e 21 68
e 21 70
e 22 23
e 22 25
e 22 26
e 22 27
e 22 28
e 22 29
e 22 30
e 22 31
e 22 32
e 22 33
e 22 36
e 22 37
e 22 38
e 22 39
e 22 40
e 22 41
e 22 42
e 22 43
e 22 45
e 22 46
e 22 48
e 22 49
e 22 53
e 22 54
e 22 55
e 22 56
e 22 57
e 22 58
e 22 59
e 22 60
e 22 61
e 22 64
e 22 65
e 22 66
e 22 67
e 22 68
e 22 69
e 22 70
e 23 24
e 23 26
e 23 27
e 23 28
e 23 29
e 23 30
e 23 31
e 23 33
e 23 34
e 23 35
e 23 36
e 23 37
e 23 38
e 23 39
e 23 40
e 23 43
e 23 44
e 23 45
e 23 46
e 23 47
e 23 48
e 23 49
e 23 51
e 23 52
e 23 53
e 23 54
e 23 55
e 23 57
e 23 59
e 23 60
e 23 61
e 23 65
e 23 67
e 23 68
e 23 69
e 24 25
e 24 26
e 24 27
e 24 28
e 24 29
e 24 32
e 24 38
e 24 39
e 24 40
e 24 41
e 24 42
e 24 43
e 24 45
e 24 46
e 24 47
e 24 48
e 24 49
e 24 50
e 24 51
e 24 53
e 24 55
e 24 56
e 24 57
e 24 58
e 24 59
e 24 60
e 24 61
e 24 62
e 24 63
e 24 64
e 24 65
e 24 66
e 24 67
e 24 68
e 24 69
e 24 70
e 25 26
e 25 28
e 25 29
e 25 30
e 25 31
e 25 33
e 25 34
e 25 35
e 25 36
e 25 37
e 25 38
e 25 39
e 25 40
e 25 42
e 25 43
e 25 44
e 25 45
e 25 47
e 25 48
e 25 50
e 25 51
e 25 52
e 25 53
e 25 54
e 25 55
e 25 57
e 25 58
e 25 60
e 25 61
e 25 62
e 25 63
e 25 64
e 25 66
e 25 67
e 25 68
e 25 69
e 25 70
e 26 27
e 26 28
e 26 29
e 26 30
e 26 31
e 26 32
e 26 34
e 26 35
e 26 36
e 26 39
e 26 41
e 26 42
e 26 44
e 26 45
e 26 46
e 26 47
e 26 48
e 26 49
e 26 50
e 26 51
e 26 52
e 26 53
e 26 54
e 26 55
e 26 57
e 26 61
e 26 62
e 26 63
e 26 66
e 26 67
e 26 68
e 26 69
e 26 70
e 27 28
e 27 29
e 27 30
e 27 33
e 27 34
e 27 35
e 27 37
e 27 38
e 27 39
e 27 40
e 27 41
e 27 42
e 27 43
e 27 44
e 27 47
e 27 48
e 27 50
e 27 51
e 27 52
e 27 54
e 27 55
e 27 56
e 27 57
e 27 58
e 27 59
e 27 60
e 27 61
e 27 62
e 27 63
e 27 64
e 27 65
e 27 66
e 27 67
e 27 68
e 27 70
e 28 29
e 28 30
e 28 31
e 28 32
e 28 33
e 28 34
e 28 35
e 28 36
e 28 37
e 28 38
e 28 40
e 28 44
e 28 46
e 28 47
e 28 49
e 28 50
e 28 51
e 28 52
e 28 53
e 28 54
e 28 56
e 28 58
e 28 59
e 28 60
e 28 61
e 28 62
e 28 63
e 28 66
e 28 68
e 28 70
e 29 30
e 29 31
e 29 32
e 29 33
e 29 34
e 29 35
e 29 36
e 29 37
e 29 39
e 29 40
e 29 42
e 29 43
e 29 44
e 29 45
e 29 46
e 29 48
e 29 49
e 29 51
e 29 52
e 29 53
e 29 54
e 29 56
e 29 60
e 29 62
e 29 63
e 29 64
e 29 65
e 29 66
e 29 67
e 29 68
e 29 69
e 29 70
e 30 34
e 30 37
e 30 38
e 30 39
e 30 41
e 30 42
e 30 43
e 30 45
e 30 46
e 30 47
e 30 48
e 30 49
e 30 50
e 30 51
e 30 52
e 30 53
e 30 54
e 30 55
e 30 56
e 30 57
e 30 58
e 30 59
e 30 60
e 30 61
e 30 63
e 30 64
e 30 65
e 30 67
e 30 69
e 30 70
e 31 33
e 31 34
e 31 35
e 31 38
e 31 41
e 31 43
e 31 46
e 31 47
e 31 48
e 31 49
e 31 50
e 31 51
e 31 52
e 31 53
e 31 54
e 31 55
e 31 56
e 31 57
e 31 58
e 31 59
e 31 60
e 31 61
e 31 62
e 31 63
e 31 64
e 31 65
e 31 66
e 31 67
e 31 68
e 31 69
e 31 70
e 32 33
e 32 34
e 32 36
e 32 37
e 32 38
e 32 39
e 32 41
e 32 42
e 32 43
e 32 44
e 32 45
e 32 46
e 32 47
e 32 48
e 32 50
e 32 51
e 32 52
e 32 53
e 32 54
e 32 55
e 32 57
e 32 58
e 32 59
e 32 61
e 32 63
e 32 64
e 32 65
e 32 66
e 32 67
e 32 68
e 32 69
e 33 36
e 33 37
e 33 39
e 33 40
e 33 41
e 33 42
e 33 43
e 33 44
e 33 45
e 33 46
e 33 47
e 33 48
e 33 49
e 33 51
e 33 52
e 33 53
e 33 55
e 33 57
e 33 58
e 33 59
e 33 60
e 33 61
e 33 62
e 33 63
e 33 64
e 33 65
e 33 67
e 33 68
e 33 69
e 33 70
e 34 35
e 34 36
e 34 37
e 34 38
e 34 39
e 34 40
e 34 41
e 34 43
e 34 45
e 34 46
e 34 47
e 34 48
e 34 49
e 34 51
e 34 53
e 34 56
e 34 57
e 34 58
e 34 59
e 34 60
e 34 61
e 34 62
e 34 64
e 34 65
e 34 68
e 34 69
e 34 70
e 35 36
e 35 37
e 35 38
e 35 39
e 35 40
e 35 41
e 35 42
e 35 43
e 35 44
e 35 45
e 35 46
e 35 47
e 35 48
e 35 49
e 35 51
e 35 52
e 35 53
e 35 54
e 35 55
e 35 57
e 35 58
e 35 59
e 35 61
e 35 63
e 35 64
e 35 65
e 35 66
e 35 67
e 35 68
e 35 69
e 35 70
e 36 37
e 36 38
e 36 39
e 36 40
e 36 41
e 36 42
e 36 43
e 36 46
e 36 47
e 36 49
e 36 50
e 36 51
e 36 52
e 36 53
e 36 55
e 36 56
e 36 57
e 36 58
e 36 59
e 36 60
e 36 61
e 36 62
e 36 63
e 36 64
e 36 65
e 36 66
e 36 69
e 36 70
e 37 38
e 37 41
e 37 42
e 37 44
e 37 46
e 37 47
e 37 48
e 37 49
e 37 50
e 37 54
e 37 55
e 37 56
e 37 57
e 37 58
e 37 59
e 37 61
e 37 62
e 37 63
e 37 64
e 37 65
e 37 66
e 37 67
e 37 68
e 37 69
e 37 70
e 38 39
e 38 40
e 38 41
e 38 42
e 38 44
e 38 45
e 38 46
e 38 47
e 38 48
e 38 49
e 38 50
e 38 51
e 38 52
e 38 53
e 38 56
e 38 58
e 38 60
e 38 61
e 38 62
e 38 63
e 38 64
e 38 66
e 38 67
e 38 69
e 38 70
e 39 41
e 39 43
e 39 46
e 39 47
e 39 49
e 39 50
e 39 53
e 39 54
e 39 55
e 39 56
e 39 57
e 39 58
e 39 59
e 39 60
e 39 61
e 39 62
e 39 63
e 39 65
e 39 66
e 39 67
e 39 68
e 40 41
e 40 42
e 40 43
e 40 44
e 40 46
e 40 47
e 40 48
e 40 50
e 40 51
e 40 52
e 40 53
e 40 54
e 40 55
e 40 56
e 40 57
e 40 58
e 40 59
e 40 61
e 40 62
e 40 63
e 40 66
e 40 67
e 40 69
e 41 42
e 41 43
e 41 44
e 41 45
e 41 46
e 41 47
e 41 48
e 41 50
e 41 51
e 41 52
e 41 53
e 41 54
e 41 55
e 41 56
e 41 60
e 41 62
e 41 63
e 41 66
e 41 67
e 41 68
e 42 43
e 42 45
e 42 46
e 42 47
e 42 48
e 42 49
e 42 50
e 42 51
e 42 52
e 42 53
e 42 54
e 42 55
e 42 56
e 42 57
e 42 58
e 42 59
e 42 60
e 42 61
e 42 62
e 42 65
e 42 68
e 42 69
e 42 70
e 43 44
e 43 47
e 43 48
e 43 49
e 43 50
e 43 51
e 43 52
e 43 56
e 43 57
e 43 58
e 43 60
e 43 61
e 43 62
e 43 63
e 43 64
e 43 66
e 43 67
e 43 68
e 43 69
e 43 70
e 44 45
e 44 46
e 44 47
e 44 49
e 44 50
e 44 51
e 44 53
e 44 54
e 44 55
e 44 56
e 44 57
e 44 58
e 44 59
e 44 60
e 44 61
e 44 63
e 44 64
e 44 65
e 44 68
e 44 69
e 44 70
e 45 46
e 45 47
e 45 50
e 45 51
e 45 52
e 45 54
e 45 55
e 45 56
e 45 57
e 45 58
e 45 59
e 45 60
e 45 61
e 45 62
e 45 63
e 45 64
e 45 66
e 45 67
e 45 70
e 46 47
e 46 48
e 46 49
e 46 50
e 46 51
e 46 52
e 46 55
e 46 57
e 46 58
e 46 60
e 46 61
e 46 62
e 46 64
e 46 65
e 46 66
e 46 67
e 46 68
e 46 69
e 46 70
e 47 49
e 47 50
e 47 54
e 47 56
e 47 57
e 47 58
e 47 59
e 47 60
e 47 62
e 47 63
e 47 64
e 47 65
e 47 66
e 47 67
e 47 68
e 47 70
e 48 49
e 48 50
e 48 51
e 48 53
e 48 54
e 48 56
e 48 58
e 48 59
e 48 60
e 48 62
e 48 63
e 48 64
e 48 65
e 48 66
e 48 70
e 49 50
e 49 51
e 49 52
e 49 54
e 49 55
e 49 56
e 49 57
e 49 58
e 49 62
e 49 63
e 49 64
e 49 66
e 49 67
e 50 51
e 50 52
e 50 53
e 50 54
e 50 55
e 50 57
e 50 59
e 50 60
e 50 61
e 50 64
e 50 65
e 50 67
e 50 68
e 50 69
e 50 70
e 51 54
e 51 55
e 51 56
e 51 57
e 51 59
e 51 61
e 51 62
e 51 64
e 51 65
e 51 66
e 51 67
e 51 68
e 52 53
e 52 54
e 52 56
e 52 57
e 52 58
e 52 59
e 52 60
e 52 61
e 52 62
e 52 63
e 52 64
e 52 65
e 52 66
e 52 67
e 52 68
e 52 69
e 52 70
e 53 54
e 53 55
e 53 56
e 53 57
e 53 58
e 53 61
e 53 62
e 53 63
e 53 64
e 53 65
e 53 66
e 53 67
e 53 68
e 53 70
e 54 56
e 54 57
e 54 58
e 54 59
e 54 60
e 54 61
e 54 62
e 54 63
e 54 64
e 54 65
e 54 66
e 54 68
e 54 69
e 54 70
e 55 56
e 55 58
e 55 59
e 55 60
e 55 61
e 55 62
e 55 63
e 55 64
e 55 65
e 55 66
e 55 68
e 55 69
e 55 70
e 56 57
e 56 61
e 56 62
e 56 64
e 56 65
e 56 66
e 56 67
e 56 68
e 56 69
e 56 70
e 57 58
e 57 59
e 57 60
e 57 62
e 57 63
e 57 69
e 57 70
e 58 61
e 58 62
e 58 65
e 58 66
e 58 67
e 58 68
e 58 69
e 59 61
e 59 62
e 59 63
e 59 64
e 59 66
e 59 67
e 59 68
e 59 69
e 59 70
e 60 61
e 60 62
e 60 63
e 60 64
e 60 65
e 60 66
e 60 67
e 60 68
e 60 69
e 61 63
e 61 64
e 61 65
e 61 66
e 61 67
e 62 63
e 62 64
e 62 65
e 62 67
e 62 68
e 62 69
e 63 64
e 63 65
e 63 66
e 63 67
e 63 68
e 63 69
e 63 70
e 64 67
e 64 68
e 64 69
e 65 66
e 65 67
e 65 69
e 65 70
e 66 68
e 66 69
e 66 70
e 67 68
e 67 69
e 67 70
e 68 69
e 68 70
